1305 3
1360 5
6001
7222 9
7245
7548 10
9096
9393 11
9418
9715 12
9741
10639 15
10675
10972 16
10983
12500 21
48696
50216 26
50424
53178 35
53258
53859 37
54853
55154 38
55678
55979 39
56929
59357 47
59626
